8 1 8 7 -1 
1 0 7 8 -1 
10 5 7 0 -1 
7 4 0 3 -1 
9 -1 5 -1 -1 
10 7 8 2 -1 
2 3 5 7 -1 
8 0 0 1 -1 
-1 -1 -1 4 -1 
1 7 -1 -1 -1 
9 -1 -1 -1 -1 
4 9 -1 8 -1 
9 6 -1 5 -1 
-1 4 -1 10 -1 
6 3 4 0 -1 
8 5 -1 -1 -1 
9 5 5 0 -1 
9 1 -1 6 -1 
-1 7 -1 -1 -1 
4 9 9 5 -1 
